% 195,25,595,[4,13,18,19,22,35,40,48,58,61,62,77,78,82,83,86,118,149,163,168,187,192,202,206,240]
% Example 195
n=25;
size=595;
squars=[4,13,18,19,22,35,40,48,58,61,62,77,78,82,83,86,118,149,163,168,187,192,202,206,240];
